50 50
50 500
50 50
500 50
100 50
100 500
50 100
500 100
150 50
150 500
50 150
500 150
200 50
200 500
50 200
500 200
250 50
250 500
50 250
500 250
50 50
50 500
50 50
500 50
100 50
100 500
50 100
500 100
150 50
150 500
50 150
500 150
200 50
200 500
50 200
500 200
250 50
250 500
50 250
500 250
